c description: Tseitin formula on Random 4-regular graph of 55 vertices, with odd charge
c generator: CNFgen (0.9.2)
c copyright: (C) 2012-2022 Massimo Lauria <massimo.lauria@uniroma1.it>
c url: https://massimolauria.net/cnfgen
c command line: cnfgen tseitin 55
c
p cnf 110 440
1 2 3 4 0
1 2 -3 -4 0
1 -2 3 -4 0
1 -2 -3 4 0
-1 2 3 -4 0
-1 2 -3 4 0
-1 -2 3 4 0
-1 -2 -3 -4 0
5 6 7 8 0
5 6 -7 -8 0
5 -6 7 -8 0
5 -6 -7 8 0
-5 6 7 -8 0
-5 6 -7 8 0
-5 -6 7 8 0
-5 -6 -7 -8 0
9 10 11 -12 0
9 10 -11 12 0
9 -10 11 12 0
9 -10 -11 -12 0
-9 10 11 12 0
-9 10 -11 -12 0
-9 -10 11 -12 0
-9 -10 -11 12 0
13 14 15 16 0
13 14 -15 -16 0
13 -14 15 -16 0
13 -14 -15 16 0
-13 14 15 -16 0
-13 14 -15 16 0
-13 -14 15 16 0
-13 -14 -15 -16 0
17 18 19 -20 0
17 18 -19 20 0
17 -18 19 20 0
17 -18 -19 -20 0
-17 18 19 20 0
-17 18 -19 -20 0
-17 -18 19 -20 0
-17 -18 -19 20 0
21 22 23 -24 0
21 22 -23 24 0
21 -22 23 24 0
21 -22 -23 -24 0
-21 22 23 24 0
-21 22 -23 -24 0
-21 -22 23 -24 0
-21 -22 -23 24 0
25 26 27 28 0
25 26 -27 -28 0
25 -26 27 -28 0
25 -26 -27 28 0
-25 26 27 -28 0
-25 26 -27 28 0
-25 -26 27 28 0
-25 -26 -27 -28 0
5 17 29 30 0
5 17 -29 -30 0
5 -17 29 -30 0
5 -17 -29 30 0
-5 17 29 -30 0
-5 17 -29 30 0
-5 -17 29 30 0
-5 -17 -29 -30 0
9 21 31 32 0
9 21 -31 -32 0
9 -21 31 -32 0
9 -21 -31 32 0
-9 21 31 -32 0
-9 21 -31 32 0
-9 -21 31 32 0
-9 -21 -31 -32 0
33 34 35 36 0
33 34 -35 -36 0
33 -34 35 -36 0
33 -34 -35 36 0
-33 34 35 -36 0
-33 34 -35 36 0
-33 -34 35 36 0
-33 -34 -35 -36 0
1 18 37 38 0
1 18 -37 -38 0
1 -18 37 -38 0
1 -18 -37 38 0
-1 18 37 -38 0
-1 18 -37 38 0
-1 -18 37 38 0
-1 -18 -37 -38 0
39 40 41 -42 0
39 40 -41 42 0
39 -40 41 42 0
39 -40 -41 -42 0
-39 40 41 42 0
-39 40 -41 -42 0
-39 -40 41 -42 0
-39 -40 -41 42 0
13 22 31 43 0
13 22 -31 -43 0
13 -22 31 -43 0
13 -22 -31 43 0
-13 22 31 -43 0
-13 22 -31 43 0
-13 -22 31 43 0
-13 -22 -31 -43 0
39 44 45 -46 0
39 44 -45 46 0
39 -44 45 46 0
39 -44 -45 -46 0
-39 44 45 46 0
-39 44 -45 -46 0
-39 -44 45 -46 0
-39 -44 -45 46 0
47 48 49 -50 0
47 48 -49 50 0
47 -48 49 50 0
47 -48 -49 -50 0
-47 48 49 50 0
-47 48 -49 -50 0
-47 -48 49 -50 0
-47 -48 -49 50 0
6 23 51 -52 0
6 23 -51 52 0
6 -23 51 52 0
6 -23 -51 -52 0
-6 23 51 52 0
-6 23 -51 -52 0
-6 -23 51 -52 0
-6 -23 -51 52 0
53 54 55 56 0
53 54 -55 -56 0
53 -54 55 -56 0
53 -54 -55 56 0
-53 54 55 -56 0
-53 54 -55 56 0
-53 -54 55 56 0
-53 -54 -55 -56 0
7 57 58 59 0
7 57 -58 -59 0
7 -57 58 -59 0
7 -57 -58 59 0
-7 57 58 -59 0
-7 57 -58 59 0
-7 -57 58 59 0
-7 -57 -58 -59 0
60 61 62 63 0
60 61 -62 -63 0
60 -61 62 -63 0
60 -61 -62 63 0
-60 61 62 -63 0
-60 61 -62 63 0
-60 -61 62 63 0
-60 -61 -62 -63 0
8 32 64 -65 0
8 32 -64 65 0
8 -32 64 65 0
8 -32 -64 -65 0
-8 32 64 65 0
-8 32 -64 -65 0
-8 -32 64 -65 0
-8 -32 -64 65 0
2 24 29 66 0
2 24 -29 -66 0
2 -24 29 -66 0
2 -24 -29 66 0
-2 24 29 -66 0
-2 24 -29 66 0
-2 -24 29 66 0
-2 -24 -29 -66 0
47 67 68 69 0
47 67 -68 -69 0
47 -67 68 -69 0
47 -67 -68 69 0
-47 67 68 -69 0
-47 67 -68 69 0
-47 -67 68 69 0
-47 -67 -68 -69 0
25 66 70 -71 0
25 66 -70 71 0
25 -66 70 71 0
25 -66 -70 -71 0
-25 66 70 71 0
-25 66 -70 -71 0
-25 -66 70 -71 0
-25 -66 -70 71 0
3 72 73 -74 0
3 72 -73 74 0
3 -72 73 74 0
3 -72 -73 -74 0
-3 72 73 74 0
-3 72 -73 -74 0
-3 -72 73 -74 0
-3 -72 -73 74 0
33 57 75 76 0
33 57 -75 -76 0
33 -57 75 -76 0
33 -57 -75 76 0
-33 57 75 -76 0
-33 57 -75 76 0
-33 -57 75 76 0
-33 -57 -75 -76 0
14 77 78 -79 0
14 77 -78 79 0
14 -77 78 79 0
14 -77 -78 -79 0
-14 77 78 79 0
-14 77 -78 -79 0
-14 -77 78 -79 0
-14 -77 -78 79 0
72 80 81 -82 0
72 80 -81 82 0
72 -80 81 82 0
72 -80 -81 -82 0
-72 80 81 82 0
-72 80 -81 -82 0
-72 -80 81 -82 0
-72 -80 -81 82 0
26 34 83 -84 0
26 34 -83 84 0
26 -34 83 84 0
26 -34 -83 -84 0
-26 34 83 84 0
-26 34 -83 -84 0
-26 -34 83 -84 0
-26 -34 -83 84 0
37 53 77 85 0
37 53 -77 -85 0
37 -53 77 -85 0
37 -53 -77 85 0
-37 53 77 -85 0
-37 53 -77 85 0
-37 -53 77 85 0
-37 -53 -77 -85 0
15 60 86 87 0
15 60 -86 -87 0
15 -60 86 -87 0
15 -60 -86 87 0
-15 60 86 -87 0
-15 60 -86 87 0
-15 -60 86 87 0
-15 -60 -86 -87 0
40 51 70 80 0
40 51 -70 -80 0
40 -51 70 -80 0
40 -51 -70 80 0
-40 51 70 -80 0
-40 51 -70 80 0
-40 -51 70 80 0
-40 -51 -70 -80 0
38 88 89 -90 0
38 88 -89 90 0
38 -88 89 90 0
38 -88 -89 -90 0
-38 88 89 90 0
-38 88 -89 -90 0
-38 -88 89 -90 0
-38 -88 -89 90 0
4 64 91 92 0
4 64 -91 -92 0
4 -64 91 -92 0
4 -64 -91 92 0
-4 64 91 -92 0
-4 64 -91 92 0
-4 -64 91 92 0
-4 -64 -91 -92 0
27 67 93 -94 0
27 67 -93 94 0
27 -67 93 94 0
27 -67 -93 -94 0
-27 67 93 94 0
-27 67 -93 -94 0
-27 -67 93 -94 0
-27 -67 -93 94 0
10 41 81 -95 0
10 41 -81 95 0
10 -41 81 95 0
10 -41 -81 -95 0
-10 41 81 95 0
-10 41 -81 -95 0
-10 -41 81 -95 0
-10 -41 -81 95 0
48 65 85 -93 0
48 65 -85 93 0
48 -65 85 93 0
48 -65 -85 -93 0
-48 65 85 93 0
-48 65 -85 -93 0
-48 -65 85 -93 0
-48 -65 -85 93 0
68 83 96 97 0
68 83 -96 -97 0
68 -83 96 -97 0
68 -83 -96 97 0
-68 83 96 -97 0
-68 83 -96 97 0
-68 -83 96 97 0
-68 -83 -96 -97 0
52 61 98 99 0
52 61 -98 -99 0
52 -61 98 -99 0
52 -61 -98 99 0
-52 61 98 -99 0
-52 61 -98 99 0
-52 -61 98 99 0
-52 -61 -98 -99 0
58 73 91 100 0
58 73 -91 -100 0
58 -73 91 -100 0
58 -73 -91 100 0
-58 73 91 -100 0
-58 73 -91 100 0
-58 -73 91 100 0
-58 -73 -91 -100 0
30 49 75 -101 0
30 49 -75 101 0
30 -49 75 101 0
30 -49 -75 -101 0
-30 49 75 101 0
-30 49 -75 -101 0
-30 -49 75 -101 0
-30 -49 -75 101 0
82 86 102 -103 0
82 86 -102 103 0
82 -86 102 103 0
82 -86 -102 -103 0
-82 86 102 103 0
-82 86 -102 -103 0
-82 -86 102 -103 0
-82 -86 -102 103 0
11 95 104 105 0
11 95 -104 -105 0
11 -95 104 -105 0
11 -95 -104 105 0
-11 95 104 -105 0
-11 95 -104 105 0
-11 -95 104 105 0
-11 -95 -104 -105 0
19 71 76 102 0
19 71 -76 -102 0
19 -71 76 -102 0
19 -71 -76 102 0
-19 71 76 -102 0
-19 71 -76 102 0
-19 -71 76 102 0
-19 -71 -76 -102 0
35 74 78 106 0
35 74 -78 -106 0
35 -74 78 -106 0
35 -74 -78 106 0
-35 74 78 -106 0
-35 74 -78 106 0
-35 -74 78 106 0
-35 -74 -78 -106 0
12 69 107 108 0
12 69 -107 -108 0
12 -69 107 -108 0
12 -69 -107 108 0
-12 69 107 -108 0
-12 69 -107 108 0
-12 -69 107 108 0
-12 -69 -107 -108 0
94 100 104 -107 0
94 100 -104 107 0
94 -100 104 107 0
94 -100 -104 -107 0
-94 100 104 107 0
-94 100 -104 -107 0
-94 -100 104 -107 0
-94 -100 -104 107 0
87 88 108 -109 0
87 88 -108 109 0
87 -88 108 109 0
87 -88 -108 -109 0
-87 88 108 109 0
-87 88 -108 -109 0
-87 -88 108 -109 0
-87 -88 -108 109 0
20 44 54 105 0
20 44 -54 -105 0
20 -44 54 -105 0
20 -44 -54 105 0
-20 44 54 -105 0
-20 44 -54 105 0
-20 -44 54 105 0
-20 -44 -54 -105 0
45 84 89 -103 0
45 84 -89 103 0
45 -84 89 103 0
45 -84 -89 -103 0
-45 84 89 103 0
-45 84 -89 -103 0
-45 -84 89 -103 0
-45 -84 -89 103 0
55 101 109 110 0
55 101 -109 -110 0
55 -101 109 -110 0
55 -101 -109 110 0
-55 101 109 -110 0
-55 101 -109 110 0
-55 -101 109 110 0
-55 -101 -109 -110 0
16 62 96 -110 0
16 62 -96 110 0
16 -62 96 110 0
16 -62 -96 -110 0
-16 62 96 110 0
-16 62 -96 -110 0
-16 -62 96 -110 0
-16 -62 -96 110 0
28 42 46 59 0
28 42 -46 -59 0
28 -42 46 -59 0
28 -42 -46 59 0
-28 42 46 -59 0
-28 42 -46 59 0
-28 -42 46 59 0
-28 -42 -46 -59 0
36 79 98 106 0
36 79 -98 -106 0
36 -79 98 -106 0
36 -79 -98 106 0
-36 79 98 -106 0
-36 79 -98 106 0
-36 -79 98 106 0
-36 -79 -98 -106 0
43 56 90 92 0
43 56 -90 -92 0
43 -56 90 -92 0
43 -56 -90 92 0
-43 56 90 -92 0
-43 56 -90 92 0
-43 -56 90 92 0
-43 -56 -90 -92 0
50 63 97 -99 0
50 63 -97 99 0
50 -63 97 99 0
50 -63 -97 -99 0
-50 63 97 99 0
-50 63 -97 -99 0
-50 -63 97 -99 0
-50 -63 -97 99 0
